This is Ipopt version 3.13.4, running with linear solver ma27.

Number of nonzeros in equality constraint Jacobian...:    29994
Number of nonzeros in inequality constraint Jacobian.:        0
Number of nonzeros in Lagrangian Hessian.............:    19999

Total number of variables............................:    10000
                     variables with only lower bounds:        0
                variables with lower and upper bounds:        0
                     variables with only upper bounds:        0
Total number of equality constraints.................:     9998
Total number of inequality constraints...............:        0
        inequality constraints with only lower bounds:        0
   inequality constraints with lower and upper bounds:        0
        inequality constraints with only upper bounds:        0

iter    objective    inf_pr   inf_du lg(mu)  ||d||  lg(rg) alpha_du alpha_pr  ls
   0  2.5405160e+06 2.48e+01 2.73e+01  -1.0 0.00e+00    -  0.00e+00 0.00e+00   0
   1  1.3512626e+06 1.51e+01 8.51e+01  -1.0 2.28e+00    -  1.00e+00 1.00e+00f  1
   2  1.5161300e+05 5.07e+00 1.38e+02  -1.0 1.47e+00    -  1.00e+00 1.00e+00f  1
   3  6.9716123e+01 4.52e-01 2.85e+01  -1.0 5.78e-01    -  1.00e+00 1.00e+00f  1
   4  6.2357100e+00 2.38e-02 1.61e+00  -1.0 2.31e-01    -  1.00e+00 1.00e+00h  1
   5  6.2324586e+00 2.29e-05 3.00e-03  -1.0 1.67e-03    -  1.00e+00 1.00e+00h  1
   6  6.2324586e+00 5.67e-11 1.55e-09  -3.8 1.12e-05    -  1.00e+00 1.00e+00h  1

Number of Iterations....: 6

                                   (scaled)                 (unscaled)
Objective...............:   7.8692659500479711e-01    6.2324586324379938e+00
Dual infeasibility......:   1.5482162041223364e-09    1.2261872336648905e-08
Constraint violation....:   5.6728843844666699e-11    5.6728843844666699e-11
Complementarity.........:   0.0000000000000000e+00    0.0000000000000000e+00
Overall NLP error.......:   1.5482162041223364e-09    1.2261872336648905e-08


Number of objective function evaluations             = 7
Number of objective gradient evaluations             = 7
Number of equality constraint evaluations            = 7
Number of inequality constraint evaluations          = 0
Number of equality constraint Jacobian evaluations   = 7
Number of inequality constraint Jacobian evaluations = 0
Number of Lagrangian Hessian evaluations             = 6
Total CPU secs in IPOPT (w/o function evaluations)   =      0.023
Total CPU secs in NLP function evaluations           =      0.034

EXIT: Optimal Solution Found.
